$molecule
-4 1
N        -0.0413476082   -0.0097195466   -0.0302620842
C        -0.0388987439    0.0555353972    1.4182459723
H         0.9766655645   -0.0976584627    1.7788906908
H        -0.3605482583    1.0455736393    1.7609271905
C         0.9414170791    0.9292799581   -0.5356910211
H         0.8779142597    0.9647213861   -1.6212699918
H         0.7428064705    1.9426126798   -0.1679013074
C        -1.3636863653    0.3925132072   -0.4972339960
H        -2.0887460737   -0.2549918151   -0.0145792824
H        -1.5725711172    1.4204353416   -0.1746035969
C        -0.8977744395   -0.9862775153    2.1228620657
O        -1.2173166836   -2.0395725942    1.5241188127
O        -1.1959253110   -0.7148005004    3.3161977307
C         2.3933309452    0.5903783465   -0.2253860124
O         2.7165534933   -0.5975406766    0.0087304198
O         3.1946057610    1.5603439967   -0.2758749860
C        -1.5090801488    0.2850006091   -2.0108714353
H        -1.1419756598    1.1919714782   -2.4833872638
H        -0.9034891866   -0.5462764692   -2.3650463503
N        -2.8791378174    0.0684935201   -2.4763316537
C        -3.3612058268   -1.2403084279   -2.0844283225
H        -2.5920066307   -1.9777936883   -2.3138524256
H        -3.5589799454   -1.3103692016   -1.0115144788
C        -3.7673219257    1.0791393529   -1.9274127190
H        -4.7705216677    0.9035768011   -2.3129795802
H        -3.8205757962    1.0156283600   -0.8387555482
C        -3.3965178548    2.5070456609   -2.3065431389
O        -3.0149206952    2.7390993387   -3.4792818219
O        -3.5443607931    3.3796697028   -1.4119679559
C        -4.6255418275   -1.7153651348   -2.7923304269
O        -5.0198124083   -1.1434544898   -3.8339573390
O        -5.1807701075   -2.7162174688   -2.2642598168
$end

$rem
 jobtype = opt
 method =  m05-2x
 basis = def2-tzvp
 solvent_method = smd
!purecart = 2111
 mem_static = 16000
 mem_total = 32000
 geom_opt_max_cycles = 600
 geom_opt_tol_gradient = 40
 geom_opt_tol_energy = 20
 geom_opt_tol_displacement = 100
 geom_opt_dmax = 10
 scf_convergence = 8
 max_scf_cycles = 10000
 xc_grid = 3
$end
