$molecule
-4 1
O         0.0014285825   -0.0005903663    2.0538588676
C         1.1201868485   -0.0166946712    2.6515652756
O         1.2668333177   -0.1001347696    3.8825726792
C         2.3768596173    0.1337859131    1.8037657401
H         3.1659310810   -0.4909404137    2.2241393780
H         2.6837625676    1.1718052493    1.9355964185
N         2.1836280524   -0.1360651531    0.3791388286
C         2.7310094358    0.9256681544   -0.4546837760
H         2.8008426829    0.5772247392   -1.4839112878
H         3.7258674837    1.2413392844   -0.1391079143
C         2.5862565467   -1.4950227282    0.0007557082
H         2.6528622431   -1.5394193361   -1.0843772607
H         3.5700967033   -1.7460524479    0.4036237356
C         1.5558490536   -2.5007153188    0.4946694306
H         1.4692469299   -2.4385454674    1.5775466782
H         1.8813084901   -3.5134507687    0.2467671198
N         0.2437248500   -2.2028412932   -0.0900976100
C        -0.8976144317   -2.6954648109    0.6689240881
H        -0.6774941916   -2.6312617021    1.7331399299
H        -1.1424467578   -3.7324758065    0.4381864823
C         0.1608429632   -2.5733807877   -1.5027810575
H        -0.8416434590   -2.9441471227   -1.7195169557
H         0.8599818564   -3.3739454247   -1.7468942430
C         0.3742614323   -1.4178294822   -2.4718743787
O         0.6142405791   -1.7026452636   -3.6573257524
O         0.2493655015   -0.2393650023   -2.0195877895
C         1.8039735494    2.1422704462   -0.4826359722
O         2.2909996438    3.2312530551   -0.8230930302
O         0.5785618101    1.9563355732   -0.1891498466
C        -2.1339343886   -1.8248645846    0.4367123112
O        -3.2435069565   -2.3193633415    0.6884865088
O        -1.9471322947   -0.6317674829    0.0317853579
$end

$rem
 jobtype = freq
 method =  m05-2x
 basis = def2-tzvp
 solvent_method = smd
! purecart = 2111
 mem_static = 1000  
 mem_total = 16000 
 max_scf_cycles = 5000
 vibman_print =	6
 xc_grid = 3
$end
