molecule {
-4 1
N        -0.0324984852    0.0252128278    0.0699954673
C         0.1506536946   -0.3081988937    1.4716845700
H         1.1455545203    0.0194833539    1.7848372542
H        -0.5650438531    0.2345867247    2.1088665011
C         0.3550627868    1.4086427958   -0.1533771928
H         0.0038545828    1.7274193963   -1.1384350129
H        -0.1329463486    2.0806924431    0.5696898691
C        -1.4291262298   -0.1685815636   -0.3211457997
H        -1.8068528298   -1.0580393262    0.1826594771
H        -2.0436790826    0.6738040234    0.0308801807
C         0.0724299417   -1.7919041577    1.8461324197
O         0.1711403738   -2.6726401260    0.9606329382
O        -0.0533235787   -2.0203571865    3.0781819616
C         1.8553097761    1.7207302287   -0.1344518743
O         2.6930402300    0.7963198648   -0.2486534805
O         2.1398875239    2.9436075215   -0.0382700812
C        -1.5747200061   -0.3546924637   -1.8333224495
H        -0.8842953151    0.3097403819   -2.3542008403
H        -1.2671273186   -1.3734446361   -2.0836362010
N        -2.9052815053   -0.1251306163   -2.3922940045
C        -3.9111416499   -0.9488401615   -1.7480460843
H        -3.5008057640   -1.9555945089   -1.6234488046
H        -4.1657940835   -0.5944795093   -0.7388948454
C        -3.2785023362    1.2787867895   -2.3579740846
H        -4.3022776092    1.3704477410   -2.7318230966
H        -3.2868285175    1.6908536856   -1.3401764834
C        -2.4405533913    2.2194702267   -3.2330239761
O        -1.9169566100    1.7842285710   -4.2856389965
O        -2.3845644241    3.4156081414   -2.8442275563
C        -5.2358181920   -1.1360874203   -2.5007302897
O        -5.3173526866   -0.8516830540   -3.7178788560
O        -6.1711829317   -1.6192883084   -1.8096603014

units angstrom
no_reorient
symmetry c1
}

set {
    basis def2-tzvp
}

energy("hf")
