$molecule
-2 1
Ca       -0.0440310656    0.0125458763    0.0647396429
O         0.0484169175   -0.0750268653    2.4457312145
C         1.1617738866   -0.0493710059    3.0506870148
O         1.3144515429   -0.2414418733    4.2698740531
C         2.3961324965    0.3147917870    2.2326156243
H         3.2908418970   -0.0389744100    2.7460146534
H         2.4172258482    1.4045608095    2.2370944296
N         2.3796110769   -0.1342678605    0.8451813420
C         3.1333158137    0.7861703332    0.0110795110
H         3.2913257448    0.3271897909   -0.9637187368
H         4.1109404300    1.0228987328    0.4345610052
C         2.8657428534   -1.5075230320    0.7158359062
H         3.1275981479   -1.6776192089   -0.3243562660
H         3.7720633550   -1.6551719031    1.3083306617
C         1.8183477910   -2.5114655261    1.1447226403
H         1.5186925904   -2.3211364057    2.1708497481
H         2.2468312203   -3.5161811189    1.1055887585
N         0.6299237930   -2.4270430596    0.2988497905
C        -0.5068643211   -3.1089500045    0.8918051870
H        -0.5466360484   -2.8630623135    1.9520530538
H        -0.4343519661   -4.1928628665    0.7969670330
C         0.8935798983   -2.9386731454   -1.0412389843
H        -0.0486256857   -3.2782386446   -1.4728301653
H         1.5724219932   -3.7918065977   -1.0079488043
C         1.4233566415   -1.9087675700   -2.0319888411
O         2.2109505240   -2.3122028268   -2.9092736279
O         0.9825839671   -0.7268863108   -1.9453049545
C         2.3829641222    2.0860224616   -0.2594662391
O         3.0634394153    3.0701810270   -0.5997062929
O         1.1184803816    2.0773259083   -0.1668114645
C        -1.8331887285   -2.6464109009    0.2977970549
O        -2.7788672875   -3.4549326696    0.3165831130
O        -1.9058177974   -1.4584890016   -0.1384842446
$end

$rem
 jobtype = opt
 method =  wb97x-d
 basis =  def2-tzvp
 solvent_method = smd
 !purecart = 2111
 mem_static = 1000
 mem_total = 16000
 geom_opt_max_cycles = 600
 geom_opt_tol_gradient = 40
 geom_opt_tol_energy = 20
 geom_opt_tol_displacement = 100
 geom_opt_dmax = 10
 scf_convergence = 8
 max_scf_cycles = 5000
 xc_grid = 2
$end
