$molecule
-2 1
Mg       -0.0124507249    0.0075219432    0.0175835464
O         0.0139254005   -0.0627736841    2.0752511483
C         1.1456925045   -0.0885209254    2.6481248430
O         1.3232549621   -0.2389480008    3.8669426661
C         2.3710360196    0.1409716142    1.7760246012
H         3.2087769549   -0.4323017498    2.1704889313
H         2.6070302463    1.1977272175    1.8937756706
N         2.1599331614   -0.1387509331    0.3606179717
C         2.7062738950    0.9089299218   -0.4829352789
H         2.7451992808    0.5542249731   -1.5101026923
H         3.7099480972    1.2080532360   -0.1839543942
C         2.5651085244   -1.4939057112   -0.0069445450
H         2.6136031816   -1.5505066844   -1.0910673763
H         3.5532136168   -1.7325356308    0.3877971091
C         1.5412251046   -2.4838715799    0.5129921882
H         1.4596688408   -2.3972576996    1.5930627428
H         1.8507840353   -3.5024900426    0.2773993639
N         0.2364251048   -2.1792720031   -0.0696977603
C        -0.8992725820   -2.6806594357    0.6813613873
H        -0.6872092899   -2.5957451341    1.7444221873
H        -1.1245854830   -3.7217366792    0.4558335727
C         0.1612984420   -2.5478786201   -1.4777860854
H        -0.8581848628   -2.8543061637   -1.7094200962
H         0.8190409978   -3.3859171336   -1.7040159864
C         0.4558440474   -1.4028773583   -2.4324257605
O         0.7884641289   -1.6939692022   -3.5933739564
O         0.2934481977   -0.2234256729   -1.9989232734
C         1.7954279723    2.1333757498   -0.4881091324
O         2.2829479984    3.2138171389   -0.8504413882
O         0.5792725210    1.9631653982   -0.1511059847
C        -2.1378833719   -1.8293766691    0.4192357106
O        -3.2463681463   -2.3386402709    0.6423403495
O        -1.9578120331   -0.6358096355    0.0151833948
$end

$rem
 jobtype = opt
 method =  wB97X-D
 basis = def2-tzvp
 solvent_method = smd
 !purecart = 2111
 mem_static = 1000
 mem_total = 16000
 geom_opt_max_cycles = 600
 geom_opt_tol_gradient = 40
 geom_opt_tol_energy = 20
 geom_opt_tol_displacement = 100
 geom_opt_dmax = 10
 scf_convergence = 8
 max_scf_cycles = 5000
 xc_grid = 2
 chelpg true
$end
